n= 1
m= 30
1000
155	6	6
84	16	8
76	18	9
40	16	8
156	20	5
113	5	5
187	9	9
137	9	9
49	24	8
117	28	7
34	27	9
113	15	5
91	16	8
199	27	9
183	12	6
152	21	7
105	9	9
21	14	7
169	18	9
91	15	5
187	24	8
193	18	6
16	14	7
191	10	5
176	16	8
134	15	5
27	12	6
134	8	8
120	10	5
94	14	7
